NAME : LIN105C.17813.tour
COMMENT : Cost = 0_17813
COMMENT : Found by LKH [Keld Helsgaun] Sun Sep 17 16:52:42 2017
TYPE : TOUR
DIMENSION : 105
TOUR_SECTION
1
3
10
11
21
22
29
28
19
27
26
25
18
16
17
5
4
13
34
38
39
42
44
104
40
49
59
64
67
68
71
78
82
84
86
89
90
81
75
74
70
61
60
65
66
87
88
94
95
100
99
98
93
102
101
97
96
92
91
85
83
79
77
72
80
76
73
69
63
62
105
56
55
50
48
45
47
51
54
57
58
53
52
46
43
41
36
37
35
14
9
8
12
24
33
32
31
30
23
20
103
15
7
6
2
-1
EOF
